Mack/Bortfeldt(2008)
Bin-Packing-Problem
BP-RG/SBSBPP/SSSCSP
Testcase-ID	1
Problem-ID	27
no_item_types	8
no_items	1373
CONTAINER_DATA (l,w,h)	587	233	220
ITEMS_DATA:
Type	x	y	z	no_items
1	118	79	51	172
2	95	60	55	156
3	84	70	35	160
4	64	58	52	172
5	76	57	36	170
6	64	55	43	184
7	86	32	31	176
8	42	42	32	183
